This is Ipopt version 3.10.1, running with linear solver mumps.

Number of nonzeros in equality constraint Jacobian...:      141
Number of nonzeros in inequality constraint Jacobian.:        0
Number of nonzeros in Lagrangian Hessian.............:     2019

Total number of variables............................:       72
                     variables with only lower bounds:        0
                variables with lower and upper bounds:       72
                     variables with only upper bounds:        0
Total number of equality constraints.................:       47
Total number of inequality constraints...............:        0
        inequality constraints with only lower bounds:        0
   inequality constraints with lower and upper bounds:        0
        inequality constraints with only upper bounds:        0

iter    objective    inf_pr   inf_du lg(mu)  ||d||  lg(rg) alpha_du alpha_pr  ls
   0 -1.5294949e-03 1.90e-10 4.50e-03  -1.0 0.00e+00    -  0.00e+00 0.00e+00   0
   1 -1.4857663e-03 1.28e-10 4.61e-06  -1.7 1.57e-02    -  1.00e+00 1.00e+00f  1
   2 -1.4087690e-03 7.25e-11 1.73e-05  -2.5 3.85e-02    -  1.00e+00 1.00e+00f  1
   3 -1.5442604e-03 4.44e-16 5.25e-06  -3.8 2.41e-02    -  1.00e+00 1.00e+00f  1
   4 -3.0237853e-03 2.22e-16 2.07e-03  -5.7 1.11e-01  -2.0 8.67e-01 1.00e+00f  1
   5 -6.3217024e-03 1.78e-15 5.28e-03  -5.7 1.22e-01  -1.6 1.00e+00 8.12e-01f  1
   6 -7.9450633e-03 7.77e-16 7.19e-03  -5.7 7.38e-02  -1.1 1.00e+00 4.53e-01f  1
   7 -9.8322131e-03 1.33e-15 4.96e-02  -5.7 7.14e-01  -1.6 3.00e-02 7.34e-01f  1
   8 -9.8193219e-03 6.28e-14 6.24e-02  -5.7 4.34e-01  -1.2 1.00e+00 4.08e-03f  3
   9 -2.6190289e-03 2.35e-14 8.25e-02  -5.7 4.58e-01  -1.7 3.88e-02 6.26e-01h  1
iter    objective    inf_pr   inf_du lg(mu)  ||d||  lg(rg) alpha_du alpha_pr  ls
  10 -2.8657865e-03 1.89e-14 6.54e-02  -5.7 1.24e+00  -2.2 1.77e-01 1.94e-01f  1
  11 -7.2025439e-03 3.33e-15 8.44e-03  -5.7 2.06e-01  -1.7 1.00e+00 8.29e-01f  1
  12 -1.0585742e-02 3.27e-12 8.04e-03  -5.7 1.41e-01  -1.3 1.00e+00 4.07e-01f  1
  13 -1.4494079e-02 4.44e-16 6.51e-03  -5.7 5.15e-02  -0.9 1.00e+00 1.00e+00f  1
  14 -2.0069677e-02 3.42e-12 7.29e-02  -5.7 1.60e+00  -1.4 2.52e-01 3.23e-02f  1
  15 -2.5429851e-02 1.93e-12 1.60e-02  -5.7 1.12e-01  -0.9 1.00e+00 4.37e-01f  1
  16 -3.0239746e-02 1.93e-12 9.05e-02  -5.7 4.10e+01  -1.4 7.12e-03 9.32e-04f  1
  17 -3.3023328e-02 3.55e-12 4.81e-02  -5.7 1.45e-01  -1.0 1.00e+00 1.33e-01f  1
  18 -3.8755107e-02 5.30e-13 1.13e-02  -5.7 4.27e-02  -0.6 1.00e+00 8.51e-01f  1
  19 -4.2371467e-02 3.29e-12 8.08e-02  -5.7 2.14e-01  -1.0 1.00e+00 1.02e-01f  1
iter    objective    inf_pr   inf_du lg(mu)  ||d||  lg(rg) alpha_du alpha_pr  ls
  20 -4.3294449e-02 2.93e-12 2.37e-02  -5.7 5.57e-02  -0.6 1.00e+00 1.10e-01f  1
  21 -4.7060933e-02 4.95e-12 1.52e-01  -5.7 4.78e-01  -1.1 9.43e-01 6.00e-02f  1
  22 -5.3070824e-02 7.45e-12 1.43e-02  -5.7 6.02e-02  -0.7 1.00e+00 5.31e-01f  1
  23 -6.7518737e-02 7.41e-12 1.08e-01  -5.7 1.54e+01  -1.1 2.83e-02 6.12e-03f  1
  24 -8.4660122e-02 5.14e-12 6.99e-02  -5.7 2.18e-01  -0.7 2.62e-01 3.05e-01f  1
  25 -8.4656635e-02 5.14e-12 6.85e-02  -5.7 1.20e+00  -1.2 1.64e-02 1.44e-04f  3
  26 -8.4651660e-02 5.14e-12 3.85e-02  -5.7 5.11e+00  -0.8 1.97e-02 9.94e-06f  8
  27 -8.8594641e-02 4.31e-12 3.82e-02  -5.7 7.31e-02  -0.3 6.09e-01 1.62e-01f  1
  28 -9.3307458e-02 6.70e-12 1.12e-01  -5.7 7.10e-01  -0.8 2.32e-01 2.12e-02f  1
  29 -1.1178705e-01 2.44e-12 3.55e-02  -5.7 8.16e-02  -0.4 1.00e+00 6.36e-01f  1
iter    objective    inf_pr   inf_du lg(mu)  ||d||  lg(rg) alpha_du alpha_pr  ls
  30 -1.1252883e-01 2.43e-12 1.96e-01  -5.7 4.64e-01  -0.9 7.91e-01 5.46e-03f  1
  31 -1.2389549e-01 1.35e-12 3.89e-02  -5.7 6.75e-02  -0.4 1.00e+00 4.45e-01f  1
  32 -1.3242257e-01 5.11e-12 4.14e-02  -5.7 2.97e-01  -0.9 1.38e-01 8.00e-02f  1
  33 -1.4136803e-01 7.78e-12 4.80e-02  -5.7 8.39e-02  -0.5 1.00e+00 2.79e-01f  1
  34 -1.4378438e-01 9.04e-12 7.37e-02  -5.7 1.97e-01  -1.0 5.69e-01 5.31e-02f  1
  35 -1.6546043e-01 8.12e-12 4.45e-02  -5.7 1.36e+00  -1.4 2.45e-02 1.02e-01f  1
  36 -1.6567148e-01 8.03e-12 4.68e-02  -5.7 4.58e-01    -  1.38e-01 1.02e-02f  1
  37 -1.6879016e-01 7.80e-12 3.99e-02  -5.7 5.61e-01    -  1.07e-02 2.91e-02f  1
  38 -1.7943515e-01 1.48e-11 3.65e-02  -5.7 5.27e-01    -  3.39e-02 1.16e-01f  1
  39 -1.9059810e-01 1.44e-11 1.09e-01  -5.7 2.00e+00  -1.0 1.10e-03 3.04e-02f  1
iter    objective    inf_pr   inf_du lg(mu)  ||d||  lg(rg) alpha_du alpha_pr  ls
  40 -2.2823616e-01 2.53e-11 5.34e-02  -5.7 1.48e-01  -0.6 1.00e+00 6.94e-01f  1
  41 -2.2823482e-01 2.53e-11 5.34e-02  -5.7 4.19e-01    -  6.15e-02 1.88e-05f 15
  42 -1.8257777e-01 1.26e-11 6.85e-02  -5.7 3.32e-01  -1.1 3.44e-01 5.03e-01h  1
  43 -1.9869043e-01 9.21e-12 1.11e-01  -5.7 4.30e-01    -  1.08e-04 2.67e-01f  1
  44 -1.9883306e-01 7.63e-12 9.27e-02  -5.7 1.56e-01  -0.6 2.68e-01 1.71e-01f  1
  45 -1.9882721e-01 7.63e-12 7.89e-02  -5.7 1.34e-01    -  5.97e-01 2.41e-04f 11
  46 -1.9373304e-01 6.93e-12 1.03e-01  -5.7 2.83e-01  -1.1 3.87e-01 9.12e-02h  1
  47 -1.9374025e-01 6.95e-12 1.02e-01  -5.7 1.48e-01    -  2.84e-03 4.90e-04f  2
  48 -1.9402036e-01 7.64e-12 1.05e-01  -5.7 1.56e-01    -  6.59e-04 1.87e-02f  1
  49 -1.9410731e-01 7.62e-12 1.04e-01  -5.7 1.35e-01  -0.7 4.69e-03 3.54e-03f  1
iter    objective    inf_pr   inf_du lg(mu)  ||d||  lg(rg) alpha_du alpha_pr  ls
  50 -1.9409859e-01 7.62e-12 1.05e-01  -5.7 2.54e-01  -1.2 2.20e-02 1.88e-04f  5
  51 -1.9409252e-01 7.62e-12 1.05e-01  -5.7 6.75e+00  -0.7 4.38e-05 6.97e-06f  5
  52 -1.9415715e-01 7.70e-12 1.04e-01  -5.7 4.82e-02  -0.3 1.50e-02 7.52e-03f  1
  53 -1.9475018e-01 7.65e-12 1.04e-01  -5.7 4.85e-01  -0.8 2.16e-03 6.43e-03f  1
  54 -2.1142713e-01 2.44e-15 3.37e-02  -5.7 7.18e-02  -0.4 1.00e+00 1.00e+00f  1
  55 -1.9312859e-01 8.88e-16 3.62e-02  -5.7 1.54e-01    -  7.64e-01 5.59e-01h  1
  56 -1.9312875e-01 6.66e-16 3.58e-02  -5.7 1.76e-01    -  2.74e-03 1.21e-05f 15
  57 -1.9312895e-01 8.88e-16 3.57e-02  -5.7 2.00e+01    -  4.78e-05 8.96e-08f 15
  58 -1.9557468e-01 7.77e-16 5.90e-02  -5.7 1.80e-01    -  1.81e-03 1.87e-01f  1
  59 -1.9556977e-01 6.66e-16 9.58e-02  -5.7 1.61e-01    -  6.47e-01 2.05e-04f  6
iter    objective    inf_pr   inf_du lg(mu)  ||d||  lg(rg) alpha_du alpha_pr  ls
  60 -1.9555765e-01 7.77e-16 9.58e-02  -5.7 6.14e+01    -  2.76e-09 1.39e-06f  6
  61 -1.9556203e-01 7.77e-16 9.53e-02  -5.7 1.23e-01  -0.8 1.28e-02 1.80e-04f  2
  62 -1.9568575e-01 7.77e-16 7.37e-02  -5.7 3.37e-01  -1.3 6.73e-02 2.24e-03f  1
  63 -1.9567653e-01 6.66e-16 9.26e-02  -5.7 1.29e-01    -  1.00e+00 4.51e-04f  6
  64 -2.0073403e-01 4.44e-16 1.25e-01  -5.7 1.62e-01    -  6.54e-02 4.62e-01f  1
  65 -2.0073256e-01 1.11e-15 1.25e-01  -5.7 1.92e-01  -1.8 1.60e-03 4.58e-05f 12
  66 -2.0073254e-01 1.11e-15 1.25e-01  -5.7 1.78e-01    -  7.65e-04 1.05e-06h 16
  67 -2.0072373e-01 1.11e-15 1.25e-01  -5.7 1.78e-01    -  1.25e-04 3.42e-04f  5
  68 -2.0366440e-01 8.88e-16 2.06e-01  -5.7 1.27e-01  -0.5 3.63e-03 9.44e-02f  1
  69 -2.0365735e-01 8.88e-16 2.14e-01  -5.7 1.71e-01    -  1.80e-01 2.41e-04f 11
iter    objective    inf_pr   inf_du lg(mu)  ||d||  lg(rg) alpha_du alpha_pr  ls
  70 -1.9798760e-01 4.21e-13 2.09e-01  -5.7 8.79e-01  -0.9 2.59e-02 2.59e-02s 17
  71 -1.9799407e-01 4.19e-13 2.08e-01  -5.7 3.99e-02    -  5.89e-03 5.89e-03s 17
  72 -1.9800851e-01 8.68e-13 2.05e-01  -5.7 4.13e-02    -  1.05e-02 1.05e-02s 17
  73 -1.9802986e-01 1.76e-12 2.03e-01  -5.7 4.35e-02    -  1.35e-02 1.35e-02s 17
  74 -1.9805586e-01 1.75e-12 2.02e-01  -5.7 7.66e-02    -  4.89e-03 4.89e-03s 17
  75 -1.9809686e-01 1.75e-12 2.01e-01  -5.7 5.88e-01  -1.4 4.38e-04 4.38e-04s 17
  76 -1.9801320e-01 1.75e-12 2.01e-01  -5.7 1.73e-01    -  3.76e-03 3.76e-03s 17
Restoration phase is called at point that is almost feasible,
  with constraint violation 3.693545e-11. Abort.

Number of Iterations....: 76

                                   (scaled)                 (unscaled)
Objective...............:  -1.9801319559838748e-01   -1.9801319559838748e-01
Dual infeasibility......:   2.0073694907635001e-01    2.0073694907635001e-01
Constraint violation....:   1.7460477508279837e-12    1.7460477508279837e-12
Complementarity.........:   2.7976433917969272e-06    2.7976433917969272e-06
Overall NLP error.......:   2.0073694907635001e-01    2.0073694907635001e-01


Number of objective function evaluations             = 234
Number of objective gradient evaluations             = 78
Number of equality constraint evaluations            = 234
Number of inequality constraint evaluations          = 0
Number of equality constraint Jacobian evaluations   = 1
Number of inequality constraint Jacobian evaluations = 0
Number of Lagrangian Hessian evaluations             = 77
Total CPU secs in IPOPT (w/o function evaluations)   =      0.140
Total CPU secs in NLP function evaluations           =      1.790

EXIT: Restoration Failed!
